0 0 2 0
2 0 2 1
0 1 0 1
1 0 1 0
2 1 3 6
3 0 1 8
3 1 0 13
5 0 1 13
5 1 3 16
1 1 2 8
1 2 4 13
4 0 2 13
2 2 5 10
2 3 0 18
0 2 1 16
4 1 1 22
5 2 5 19
2 4 1 27
3 2 2 22
4 2 4 25
1 3 5 28
5 3 0 28
3 3 3 27
0 3 3 30
2 5 4 30
0 4 5 38
3 4 4 37
1 4 0 38
4 3 5 41
5 4 4 45
5 5 2 49
4 4 0 48
0 5 4 49
1 5 3 48
3 5 5 45
4 5 3 52

